language Essence 1.3

letting fs be

function(
         2 --> [(({{18}}, 16), 11), (({{18}}, 16), 11)],
         3 --> [(({{18}}, 16), 11), (({{18}}, 16), 11)],
         4 --> [(({{18}}, 16), 11), (({{18}}, 16), 11)]
        )
